c --- [ banner ] -------------------------------------------------------------
c 
c CaDiCaL SAT Solver
c Copyright (c) 2016-2023 A. Biere, M. Fleury, N. Froleyks, K. Fazekas, F. Pollitt
c 
c Version 1.9.5
c g++ (Ubuntu 11.4.0-1ubuntu1~22.04) 11.4.0 -Wall -Wextra -O3 -DNDEBUG -static
c Thu Mar 7 06:16:21 CET 2024 Linux pc101447 6.5.0-17-generic x86_64
c 
c --- [ limit ] --------------------------------------------------------------
c 
c setting time limit to 3600 seconds real time (due to '-t 3600')
c 
c --- [ parsing input ] ------------------------------------------------------
c 
c reading DIMACS file from '/home/oliveras/SAT-comp-2023//909f704d5f4127c1197a086705468624-rbsat-v760c43649gyes10.cnf'
c opening file to read '/home/oliveras/SAT-comp-2023//909f704d5f4127c1197a086705468624-rbsat-v760c43649gyes10.cnf'
c found 'p cnf 760 43649' header
c parsed 43649 clauses in 0.03 seconds process time
c 
c --- [ options ] ------------------------------------------------------------
c 
c   --seed=1                       (different from default '0')
c 
c --- [ solving ] ------------------------------------------------------------
c 
c time measured in process time since initialization
c 
c  seconds  reductions  redundant  irredundant
c         MB    restarts       trail     variables
c          level   conflicts       glue      remaining
c 
c *  0.03  5  0 0   0    0    0  0% 0 43649 760 100%
c {  0.03  5  0 0   0    0    0  0% 0 43649 760 100%
c -  0.04  5 15 1   8  300  224 80% 5 43649 760 100%
c -  0.07  7 16 2  38  902  558 78% 5 43649 760 100%
c }  0.07  7 15 2  47 1002  641 78% 5 43649 760 100%
c [  0.07  7  0 2  47 1002  641  0% 0 43649 760 100%
c O  0.07  7  6 2  47 1003  642 83% 6 43649 760 100%
c -  0.10  7 14 3  47 1802 1116 77% 7 43649 760 100%
c ]  0.15  7 17 3  48 3002 2188 79% 8 43649 760 100%
c {  0.15  7 15 3  48 3002 2188 78% 5 43649 760 100%
c -  0.15  8 15 4  48 3002 1743 78% 5 43649 760 100%
c F  0.15  8 15 4  48 3004 1745 78% 5 43649 760 100%
c -  0.20  8 14 5 212 4505 2039 79% 5 43649 760 100%
c 2  0.22  8 14 5 236 5002 2288 79% 5 41141 760 100%
c p  0.23  8 14 5 236 5002 2291 79% 5 41141 760 100%
c #  0.26  8 13 5 283 6010 2944 78% 5 41141 760 100%
c -  0.27  7 13 6 311 6305 2386 79% 5 41141 760 100%
c }  0.29  7 14 6 390 7002 2970 79% 5 41141 760 100%
c [  0.29  7 17 6 390 7002 2970 79% 8 41141 760 100%
c -  0.35  9 20 7 391 8406 3221 82% 8 41141 760 100%
c 
c  seconds  reductions   redundant  irredundant
c         MB    restarts        trail     variables
c          level    conflicts       glue      remaining
c 
c I  0.40  9 21 7 392 10012 4518 82% 8 41141 760 100%
c -  0.43  8 30 8 393 10807 3782 80% 10 41141 760 100%
c s  0.47  9 35 8 394 11691 4406 79% 11 41141 760 100%
c w  0.48  9 35 8 394 11691 4406 79% 11 41141 760 100%
c e  0.55  9 35 8 394 11691 2302 79% 11 40647 734 97%
c s  0.55  9 35 8 394 11691 2293 79% 11 40647 734 97%
c -  0.63  9 32 9 395 13507 3015 78% 11 40647 734 97%
c ]  0.68  9 30 9 395 15002 4238 77% 11 40647 734 97%
c {  0.68  9 14 9 395 15002 4238 79% 5 40647 734 97%
c p  0.70  9 14 9 395 15002 4244 79% 5 40647 734 97%
c B  0.70  9 14 9 396 15013 4254 79% 5 40647 734 97%
c -  0.75  9 14 10 493 16507 4195 78% 5 40647 734 97%
c -  0.84  9 13 11 712 19807 5036 77% 5 40647 734 97%
c W  0.90  9 13 11 807 21017 5812 77% 5 40647 734 97%
c -  0.98  9 13 12 1005 23407 5742 77% 5 40647 734 97%
c -  1.10  9 12 13 1233 27307 6303 77% 6 40647 734 97%
c F  1.12  9 12 13 1265 28018 6755 77% 6 40647 734 97%
c p  1.19  9 12 13 1332 30005 8058 77% 5 40647 734 97%
c }  1.22  9 12 13 1378 31005 8698 77% 5 40647 734 97%
c [  1.22  9 30 13 1378 31005 8698 77% 11 40647 734 97%
c 
c  seconds  reductions     redundant   irredundant
c         MB     restarts         trail      variables
c          level      conflicts       glue       remaining
c 
c -  1.25 11 29 14 1378 31511 6799 77% 11 40647 734 97%
c s  1.37 11 27 14 1380 34857 9325 77% 10 40647 734 97%
c v  1.38 11 27 14 1380 34857 9325 77% 10 40644 734 97%
c t  1.40 11 27 14 1380 34857 9315 77% 10 40641 734 97%
c s  1.42 11 27 14 1380 34857 9290 77% 10 40641 734 97%
c -  1.48 10 27 15 1381 36014 7987 78% 10 40641 734 97%
c B  1.48 10 27 15 1381 36019 7992 78% 10 40641 734 97%
c ]  1.62 10 25 15 1383 39704 10929 78% 10 40641 734 97%
c 1  1.62 10 25 15 1383 39704 10929 78% 10 40641 734 97%
c 
c --- [ result ] -------------------------------------------------------------
c 
s SATISFIABLE
v 1 -2 -3 -4 -5 -6 -7 -8 -9 -10 -11 -12 -13 -14 -15 -16 -17 -18 -19 -20 21 -22
v -23 -24 -25 -26 -27 -28 -29 -30 -31 -32 -33 -34 -35 -36 -37 -38 -39 -40 41
v -42 -43 -44 -45 -46 -47 -48 -49 -50 -51 -52 -53 -54 -55 -56 -57 -58 -59 -60
v -61 -62 -63 -64 -65 -66 -67 -68 69 -70 -71 -72 -73 -74 -75 -76 -77 -78 -79
v -80 -81 -82 -83 -84 -85 -86 -87 -88 -89 -90 91 -92 -93 -94 -95 96 -97 -98
v -99 -100 -101 -102 -103 -104 -105 -106 -107 -108 -109 -110 -111 -112 -113
v -114 -115 -116 -117 -118 -119 -120 -121 122 -123 -124 -125 -126 -127 -128
v -129 -130 -131 -132 -133 -134 -135 -136 -137 -138 -139 -140 -141 -142 -143
v -144 -145 -146 -147 -148 149 -150 -151 -152 -153 -154 -155 -156 -157 -158
v -159 -160 -161 -162 -163 -164 -165 -166 -167 -168 -169 -170 171 -172 -173
v -174 175 -176 -177 -178 -179 -180 -181 -182 -183 -184 -185 -186 -187 -188
v -189 -190 -191 -192 -193 -194 -195 -196 -197 -198 -199 -200 -201 -202 -203
v 204 -205 -206 -207 -208 -209 -210 -211 -212 -213 -214 -215 -216 -217 -218
v -219 -220 -221 222 -223 -224 -225 -226 -227 -228 -229 -230 -231 -232 -233
v -234 -235 -236 -237 -238 -239 -240 -241 -242 -243 -244 -245 246 -247 -248
v -249 -250 -251 -252 -253 -254 -255 -256 -257 -258 -259 -260 261 -262 -263
v -264 -265 -266 -267 -268 -269 -270 -271 -272 -273 -274 -275 -276 -277 -278
v -279 280 -281 -282 -283 -284 -285 -286 -287 -288 -289 -290 -291 -292 -293
v -294 -295 -296 -297 -298 -299 -300 301 -302 -303 -304 -305 -306 -307 -308
v -309 -310 -311 312 -313 -314 -315 -316 -317 -318 -319 -320 -321 -322 -323
v -324 -325 -326 -327 -328 -329 330 -331 -332 -333 -334 -335 -336 -337 -338
v -339 -340 -341 -342 -343 -344 -345 346 -347 -348 -349 -350 -351 -352 -353
v -354 -355 -356 -357 -358 -359 -360 -361 -362 -363 -364 365 -366 -367 -368
v -369 -370 -371 -372 -373 -374 -375 -376 -377 -378 -379 -380 -381 -382 -383
v -384 -385 -386 -387 388 -389 -390 -391 -392 -393 -394 -395 -396 -397 -398
v -399 -400 -401 -402 -403 -404 -405 -406 -407 -408 -409 -410 -411 412 -413
v -414 -415 -416 -417 -418 -419 -420 -421 -422 -423 -424 -425 -426 -427 -428
v -429 -430 431 -432 -433 -434 -435 -436 -437 -438 -439 -440 -441 -442 -443
v -444 445 -446 -447 -448 -449 -450 -451 -452 -453 -454 -455 -456 -457 -458
v -459 -460 -461 -462 -463 -464 -465 -466 -467 -468 -469 -470 -471 472 -473
v -474 -475 -476 -477 -478 -479 -480 -481 -482 -483 484 -485 -486 -487 -488
v -489 -490 -491 -492 -493 -494 -495 -496 -497 -498 -499 -500 -501 -502 -503
v -504 -505 -506 -507 -508 -509 -510 -511 512 -513 -514 -515 -516 -517 518
v -519 -520 -521 -522 -523 -524 -525 -526 -527 -528 -529 -530 -531 -532 -533
v -534 -535 -536 -537 -538 -539 -540 -541 -542 -543 -544 -545 546 -547 -548
v -549 -550 -551 -552 -553 -554 -555 -556 -557 -558 -559 560 -561 -562 -563
v -564 -565 -566 -567 -568 -569 -570 -571 -572 -573 -574 -575 -576 -577 -578
v -579 -580 -581 -582 -583 -584 -585 586 -587 -588 -589 -590 -591 -592 -593
v -594 -595 -596 -597 -598 -599 -600 -601 -602 -603 -604 -605 -606 -607 608
v -609 -610 -611 -612 -613 -614 -615 -616 -617 618 -619 -620 -621 -622 -623
v -624 -625 -626 -627 -628 -629 -630 -631 -632 -633 -634 -635 -636 -637 -638
v -639 -640 -641 642 -643 -644 -645 -646 -647 -648 -649 -650 -651 -652 -653
v -654 -655 -656 657 -658 -659 -660 -661 -662 -663 -664 -665 -666 -667 -668
v -669 670 -671 -672 -673 -674 -675 -676 -677 -678 -679 -680 -681 -682 -683
v -684 -685 -686 -687 -688 -689 -690 -691 -692 -693 -694 -695 -696 -697 -698
v 699 -700 -701 -702 -703 -704 -705 -706 -707 -708 -709 -710 -711 -712 -713
v -714 -715 -716 -717 718 -719 -720 -721 -722 -723 -724 -725 -726 -727 -728
v -729 -730 -731 -732 -733 -734 -735 -736 -737 -738 739 -740 -741 -742 -743
v -744 -745 -746 -747 -748 -749 -750 -751 -752 -753 754 -755 -756 -757 -758
v -759 -760 0
c 
c --- [ run-time profiling ] -------------------------------------------------
c 
c process time taken by individual solving procedures
c (percentage relative to process time for solving)
c 
c         1.38   86.69% search
c         0.70   43.73% stable
c         0.66   41.23% unstable
c         0.21   13.30% simplify
c         0.07    4.36% elim
c         0.03    1.88% subsume
c         0.03    1.86% probe
c         0.03    1.69% walk
c         0.03    1.64% parse
c         0.02    1.46% vivify
c         0.01    0.66% ternary
c         0.00    0.02% lucky
c   =================================
c         1.59   98.34% solve
c 
c last line shows process time for solving
c (percentage relative to total process time)
c 
c --- [ statistics ] ---------------------------------------------------------
c 
c chronological:             13345        33.61 %  of conflicts
c conflicts:                 39704     24949.45    per second
c decisions:                 63985     40207.29    per second
c eliminated:                   26         3.42 %  of all variables
c learned:                   38623        97.28 %  per conflict
c learned_lits:            1999058       100.00 %  learned literals
c minimized:                     0         0.00 %  learned literals
c shrunken:                1068448        53.45 %  learned literals
c minishrunken:             231563        11.58 %  learned literals
c otfs:                        192         0.48 %  of conflict
c propagations:            5695887         3.58 M  per second
c reduced:                   16636        41.90 %  per conflict
c rephased:                      8      4963.00    interval
c restarts:                   1383        28.71    interval
c stabilizing:                   3        47.10 %  of conflicts
c subsumed:                  11433        13.53 %  of all clauses
c strengthened:               7939         9.40 %  of all clauses
c trail reuses:                  0         0.00 %  of incremental calls
c vivified:                    152         0.18 %  of all clauses
c walked:                        1     39704.00    interval
c weakened:                    494         2.89    average size
c 
c seconds are measured in process time for solving
c 
c --- [ resources ] ----------------------------------------------------------
c 
c total process time since initialization:         1.62    seconds
c total real time since initialization:            1.62    seconds
c maximum resident set size of process:           11.17    MB
c 
c --- [ shutting down ] ------------------------------------------------------
c 
c exit 10
